g3 0 1 0	# problem meanvarx
 35 44 1 0 8	# vars, constraints, objectives, ranges, eqns
 0 1	# nonlinear constraints, objectives
 0 0	# network constraints: nonlinear, linear
 0 7 0	# nonlinear vars in constraints, objectives, both
 0 0 0 1	# linear network variables; functions; arith, flags
 14 0 0 0 0	# discrete variables: binary, integer, nonlinear (b,c,o)
 103 7	# nonzeros in Jacobian, gradients
 3 3	# max name lengths: constraints, variables
 0 0 0 0 0	# common exprs: b,c,o,c1,o1
b
2 0
2 0
2 0
2 0
2 0
2 0
2 0
2 0
2 0
2 0
2 0
2 0
2 0
2 0
2 0
2 0
2 0
2 0
2 0
2 0
2 0
0 0 1
0 0 1
0 0 1
0 0 1
0 0 1
0 0 1
0 0 1
0 0 1
0 0 1
0 0 1
0 0 1
0 0 1
0 0 1
0 0 1
r
4 1
4 .2
4 .2
4 0
4 0
4 .2
4 .2
4 .2
1 .3
1 0
1 0
1 0
1 0
1 0
1 0
1 0
2 0
2 0
2 0
2 0
2 0
2 0
2 0
1 0
1 0
1 0
1 0
1 0
1 0
1 0
2 0
2 0
2 0
2 0
2 0
2 0
2 0
1 1
1 1
1 1
1 1
1 1
1 1
1 1
C0
n0
C1
n0
C2
n0
C3
n0
C4
n0
C5
n0
C6
n0
C7
n0
C8
n0
C9
n0
C10
n0
C11
n0
C12
n0
C13
n0
C14
n0
C15
n0
C16
n0
C17
n0
C18
n0
C19
n0
C20
n0
C21
n0
C22
n0
C23
n0
C24
n0
C25
n0
C26
n0
C27
n0
C28
n0
C29
n0
C30
n0
C31
n0
C32
n0
C33
n0
C34
n0
C35
n0
C36
n0
C37
n0
C38
n0
C39
n0
C40
n0
C41
n0
C42
n0
C43
n0
O0 0
o54
35
o2
o2
n42.18
v0
v0
o2
o2
n40.36
v0
v1
o2
o2
n21.76
v0
v2
o2
o2
n10.6
v0
v3
o2
o2
n24.64
v0
v4
o2
o2
n47.68
v0
v5
o2
o2
n34.82
v0
v6
o2
o2
n70.89
v1
v1
o2
o2
n43.16
v1
v2
o2
o2
n30.82
v1
v3
o2
o2
n46.48
v1
v4
o2
o2
n47.6
v1
v5
o2
o2
n25.24
v1
v6
o2
o2
n25.51
v2
v2
o2
o2
n19.2
v2
v3
o2
o2
n45.26
v2
v4
o2
o2
n26.44
v2
v5
o2
o2
n9.4
v2
v6
o2
o2
n22.33
v3
v3
o2
o2
n20.64
v3
v4
o2
o2
n20.92
v3
v5
o2
o2
n2
v3
v6
o2
o2
n30.01
v4
v4
o2
o2
n32.72
v4
v5
o2
o2
n14.4
v4
v6
o2
o2
n42.23
v5
v5
o2
o2
n19.8
v5
v6
o2
o2
n16.42
v6
v6
o2
n-6.435e-2
v0
o2
n-5.48e-2
v1
o2
n-2.505e-2
v2
o2
n-7.62e-2
v3
o2
n-3.815e-2
v4
o2
n-9.27e-2
v5
o2
n-3.1e-2
v6
k34
2
4
6
8
10
12
14
18
22
26
30
34
38
42
45
48
51
54
57
60
63
66
69
72
75
78
81
84
87
90
92
94
97
100
J0 7
0 1
1 1
2 1
3 1
4 1
5 1
6 1
J1 3
0 1
7 -1
14 1
J2 3
1 1
8 -1
15 1
J3 3
2 1
9 -1
16 1
J4 3
3 1
10 -1
17 1
J5 3
4 1
11 -1
18 1
J6 3
5 1
12 -1
19 1
J7 3
6 1
13 -1
20 1
J8 7
7 1
8 1
9 1
10 1
11 1
12 1
13 1
J9 2
7 1
21 -.11
J10 2
8 1
22 -.1
J11 2
9 1
23 -7e-2
J12 2
10 1
24 -.11
J13 2
11 1
25 -.2
J14 2
12 1
26 -.1
J15 2
13 1
27 -.1
J16 2
7 1
21 -3e-2
J17 2
8 1
22 -4e-2
J18 2
9 1
23 -4e-2
J19 2
10 1
24 -3e-2
J20 2
11 1
25 -3e-2
J21 2
12 1
26 -3e-2
J22 2
13 1
27 -3e-2
J23 2
14 1
28 -.2
J24 2
15 1
29 -.15
J25 1
16 1
J26 1
17 1
J27 2
18 1
32 -.1
J28 2
19 1
33 -.15
J29 2
20 1
34 -.2
J30 2
14 1
28 -2e-2
J31 2
15 1
29 -2e-2
J32 2
16 1
30 -4e-2
J33 2
17 1
31 -4e-2
J34 2
18 1
32 -4e-2
J35 2
19 1
33 -4e-2
J36 2
20 1
34 -4e-2
J37 2
21 1
28 1
J38 2
22 1
29 1
J39 2
23 1
30 1
J40 2
24 1
31 1
J41 2
25 1
32 1
J42 2
26 1
33 1
J43 2
27 1
34 1
G0 7
0 0
1 0
2 0
3 0
4 0
5 0
6 0
